NAME /Users/henri/Research/solvers/instances/idol-instances/robust/collection/spp_dkp_Lefebvre_et_al_2026/shortest_path_7_10/uncertainty_sets/discrete_knapsack
ROWS
 N  OBJ
 L  primal_lower
COLUMNS
    MARKER    'MARKER'                 'INTORG'
    y[0,2]     OBJ        0
    y[0,2]     primal_lower -4.14
    y[0,3]     OBJ        0
    y[0,3]     primal_lower -0.13
    y[0,4]     OBJ        0
    y[0,4]     primal_lower -1.06
    y[0,5]     OBJ        0
    y[0,5]     primal_lower -3.11
    y[0,6]     OBJ        0
    y[0,6]     primal_lower -0.49
    y[1,2]     OBJ        0
    y[1,2]     primal_lower -3.12
    y[1,6]     OBJ        0
    y[1,6]     primal_lower -0.27
    y[2,0]     OBJ        0
    y[2,0]     primal_lower -4.83
    y[2,1]     OBJ        0
    y[2,1]     primal_lower -4.93
    y[2,3]     OBJ        0
    y[2,3]     primal_lower -2.62
    y[2,4]     OBJ        0
    y[2,4]     primal_lower -3.2
    y[2,5]     OBJ        0
    y[2,5]     primal_lower -3.85
    y[2,6]     OBJ        0
    y[2,6]     primal_lower -3.85
    y[3,0]     OBJ        0
    y[3,0]     primal_lower -2.1
    y[3,2]     OBJ        0
    y[3,2]     primal_lower -3.87
    y[3,4]     OBJ        0
    y[3,4]     primal_lower -2.13
    y[3,5]     OBJ        0
    y[3,5]     primal_lower -4.66
    y[3,6]     OBJ        0
    y[3,6]     primal_lower -3.43
    y[4,0]     OBJ        0
    y[4,0]     primal_lower -1.85
    y[4,2]     OBJ        0
    y[4,2]     primal_lower -4.32
    y[4,3]     OBJ        0
    y[4,3]     primal_lower -1.91
    y[4,5]     OBJ        0
    y[4,5]     primal_lower -0.48
    y[4,6]     OBJ        0
    y[4,6]     primal_lower -1.63
    y[5,0]     OBJ        0
    y[5,0]     primal_lower -2.09
    y[5,2]     OBJ        0
    y[5,2]     primal_lower -3.73
    y[5,3]     OBJ        0
    y[5,3]     primal_lower -3.31
    y[5,4]     OBJ        0
    y[5,4]     primal_lower -1.01
    y[5,6]     OBJ        0
    y[5,6]     primal_lower -4.07
    y[6,0]     OBJ        0
    y[6,0]     primal_lower -3.96
    y[6,1]     OBJ        0
    y[6,1]     primal_lower -1.99
    y[6,2]     OBJ        0
    y[6,2]     primal_lower -2.57
    y[6,3]     OBJ        0
    y[6,3]     primal_lower -4
    y[6,4]     OBJ        0
    y[6,4]     primal_lower -2.24
    y[6,5]     OBJ        0
    y[6,5]     primal_lower -3.74
    u[0,2]     OBJ        0
    u[0,2]     primal_lower 25
    u[0,3]     OBJ        0
    u[0,3]     primal_lower 39
    u[0,4]     OBJ        0
    u[0,4]     primal_lower 77
    u[0,5]     OBJ        0
    u[0,5]     primal_lower 60
    u[0,6]     OBJ        0
    u[0,6]     primal_lower 15
    u[1,2]     OBJ        0
    u[1,2]     primal_lower 85
    u[1,6]     OBJ        0
    u[1,6]     primal_lower 72
    u[2,0]     OBJ        0
    u[2,0]     primal_lower 89
    u[2,1]     OBJ        0
    u[2,1]     primal_lower 69
    u[2,3]     OBJ        0
    u[2,3]     primal_lower 23
    u[2,4]     OBJ        0
    u[2,4]     primal_lower 51
    u[2,5]     OBJ        0
    u[2,5]     primal_lower 18
    u[2,6]     OBJ        0
    u[2,6]     primal_lower 42
    u[3,0]     OBJ        0
    u[3,0]     primal_lower 11
    u[3,2]     OBJ        0
    u[3,2]     primal_lower 37
    u[3,4]     OBJ        0
    u[3,4]     primal_lower 9
    u[3,5]     OBJ        0
    u[3,5]     primal_lower 22
    u[3,6]     OBJ        0
    u[3,6]     primal_lower 92
    u[4,0]     OBJ        0
    u[4,0]     primal_lower 15
    u[4,2]     OBJ        0
    u[4,2]     primal_lower 52
    u[4,3]     OBJ        0
    u[4,3]     primal_lower 97
    u[4,5]     OBJ        0
    u[4,5]     primal_lower 96
    u[4,6]     OBJ        0
    u[4,6]     primal_lower 64
    u[5,0]     OBJ        0
    u[5,0]     primal_lower 56
    u[5,2]     OBJ        0
    u[5,2]     primal_lower 69
    u[5,3]     OBJ        0
    u[5,3]     primal_lower 68
    u[5,4]     OBJ        0
    u[5,4]     primal_lower 89
    u[5,6]     OBJ        0
    u[5,6]     primal_lower 91
    u[6,0]     OBJ        0
    u[6,0]     primal_lower 66
    u[6,1]     OBJ        0
    u[6,1]     primal_lower 60
    u[6,2]     OBJ        0
    u[6,2]     primal_lower 90
    u[6,3]     OBJ        0
    u[6,3]     primal_lower 25
    u[6,4]     OBJ        0
    u[6,4]     primal_lower 30
    u[6,5]     OBJ        0
    u[6,5]     primal_lower 83
    MARKER    'MARKER'                 'INTEND'
RHS
    RHS       primal_lower 171
BOUNDS
 LI BND       y[0,2]     0
 UI BND       y[0,2]     1
 LI BND       y[0,3]     0
 UI BND       y[0,3]     1
 LI BND       y[0,4]     0
 UI BND       y[0,4]     1
 LI BND       y[0,5]     0
 UI BND       y[0,5]     1
 LI BND       y[0,6]     0
 UI BND       y[0,6]     1
 LI BND       y[1,2]     0
 UI BND       y[1,2]     1
 LI BND       y[1,6]     0
 UI BND       y[1,6]     1
 LI BND       y[2,0]     0
 UI BND       y[2,0]     1
 LI BND       y[2,1]     0
 UI BND       y[2,1]     1
 LI BND       y[2,3]     0
 UI BND       y[2,3]     1
 LI BND       y[2,4]     0
 UI BND       y[2,4]     1
 LI BND       y[2,5]     0
 UI BND       y[2,5]     1
 LI BND       y[2,6]     0
 UI BND       y[2,6]     1
 LI BND       y[3,0]     0
 UI BND       y[3,0]     1
 LI BND       y[3,2]     0
 UI BND       y[3,2]     1
 LI BND       y[3,4]     0
 UI BND       y[3,4]     1
 LI BND       y[3,5]     0
 UI BND       y[3,5]     1
 LI BND       y[3,6]     0
 UI BND       y[3,6]     1
 LI BND       y[4,0]     0
 UI BND       y[4,0]     1
 LI BND       y[4,2]     0
 UI BND       y[4,2]     1
 LI BND       y[4,3]     0
 UI BND       y[4,3]     1
 LI BND       y[4,5]     0
 UI BND       y[4,5]     1
 LI BND       y[4,6]     0
 UI BND       y[4,6]     1
 LI BND       y[5,0]     0
 UI BND       y[5,0]     1
 LI BND       y[5,2]     0
 UI BND       y[5,2]     1
 LI BND       y[5,3]     0
 UI BND       y[5,3]     1
 LI BND       y[5,4]     0
 UI BND       y[5,4]     1
 LI BND       y[5,6]     0
 UI BND       y[5,6]     1
 LI BND       y[6,0]     0
 UI BND       y[6,0]     1
 LI BND       y[6,1]     0
 UI BND       y[6,1]     1
 LI BND       y[6,2]     0
 UI BND       y[6,2]     1
 LI BND       y[6,3]     0
 UI BND       y[6,3]     1
 LI BND       y[6,4]     0
 UI BND       y[6,4]     1
 LI BND       y[6,5]     0
 UI BND       y[6,5]     1
 LI BND       u[0,2]     0
 UI BND       u[0,2]     1
 LI BND       u[0,3]     0
 UI BND       u[0,3]     1
 LI BND       u[0,4]     0
 UI BND       u[0,4]     1
 LI BND       u[0,5]     0
 UI BND       u[0,5]     1
 LI BND       u[0,6]     0
 UI BND       u[0,6]     1
 LI BND       u[1,2]     0
 UI BND       u[1,2]     1
 LI BND       u[1,6]     0
 UI BND       u[1,6]     1
 LI BND       u[2,0]     0
 UI BND       u[2,0]     1
 LI BND       u[2,1]     0
 UI BND       u[2,1]     1
 LI BND       u[2,3]     0
 UI BND       u[2,3]     1
 LI BND       u[2,4]     0
 UI BND       u[2,4]     1
 LI BND       u[2,5]     0
 UI BND       u[2,5]     1
 LI BND       u[2,6]     0
 UI BND       u[2,6]     1
 LI BND       u[3,0]     0
 UI BND       u[3,0]     1
 LI BND       u[3,2]     0
 UI BND       u[3,2]     1
 LI BND       u[3,4]     0
 UI BND       u[3,4]     1
 LI BND       u[3,5]     0
 UI BND       u[3,5]     1
 LI BND       u[3,6]     0
 UI BND       u[3,6]     1
 LI BND       u[4,0]     0
 UI BND       u[4,0]     1
 LI BND       u[4,2]     0
 UI BND       u[4,2]     1
 LI BND       u[4,3]     0
 UI BND       u[4,3]     1
 LI BND       u[4,5]     0
 UI BND       u[4,5]     1
 LI BND       u[4,6]     0
 UI BND       u[4,6]     1
 LI BND       u[5,0]     0
 UI BND       u[5,0]     1
 LI BND       u[5,2]     0
 UI BND       u[5,2]     1
 LI BND       u[5,3]     0
 UI BND       u[5,3]     1
 LI BND       u[5,4]     0
 UI BND       u[5,4]     1
 LI BND       u[5,6]     0
 UI BND       u[5,6]     1
 LI BND       u[6,0]     0
 UI BND       u[6,0]     1
 LI BND       u[6,1]     0
 UI BND       u[6,1]     1
 LI BND       u[6,2]     0
 UI BND       u[6,2]     1
 LI BND       u[6,3]     0
 UI BND       u[6,3]     1
 LI BND       u[6,4]     0
 UI BND       u[6,4]     1
 LI BND       u[6,5]     0
 UI BND       u[6,5]     1
ENDATA
